
Gurobi 10.0.1 (linux64) logging started Sun Nov 26 16:33:47 2023

Set parameter LogFile to value "ArtificialInstance/ExperimentV2/S4T4K2/AdSp/gurobiDoSp89.txt"
Gurobi Optimizer version 10.0.1 build v10.0.1rc0 (linux64)

CPU model: AMD EPYC 7H12 64-Core Processor, instruction set [SSE2|AVX|AVX2]
Thread count: 128 physical cores, 128 logical processors, using up to 32 threads

Academic license 656792 - for non-commercial use only - registered to b.___@student.vu.nl
Optimize a model with 11350 rows, 10815 columns and 41345 nonzeros
Model fingerprint: 0xe645ce7a
Variable types: 0 continuous, 10815 integer (10815 binary)
Coefficient statistics:
  Matrix range     [1e+00, 1e+00]
  Objective range  [9e-01, 2e+01]
  Bounds range     [1e+00, 1e+00]
  RHS range        [1e+00, 1e+00]
Presolve removed 9484 rows and 9043 columns
Presolve time: 0.21s
Presolved: 1866 rows, 1772 columns, 6978 nonzeros
Variable types: 0 continuous, 1772 integer (1772 binary)

Root relaxation: objective 7.576320e+01, 617 iterations, 0.01 seconds (0.01 work units)

    Nodes    |    Current Node    |     Objective Bounds      |     Work
 Expl Unexpl |  Obj  Depth IntInf | Incumbent    BestBd   Gap | It/Node Time

*    0     0               0      75.7631988   75.76320  0.00%     -    0s

Explored 1 nodes (617 simplex iterations) in 0.26 seconds (0.16 work units)
Thread count was 32 (of 128 available processors)

Solution count 1: 75.7632 

Optimal solution found (tolerance 1.00e-04)
Best objective 7.576319879082e+01, best bound 7.576319879082e+01, gap 0.0000%
